NAME: tsp5_15
COMMENT: 5-tsp problem (Padberg/Rinaldi)
TYPE: TSP
DIMENSION: 5
EDGE_WEIGHT_TYPE : EUC_2D
NODE_COORD_SECTION
1.00 9.71 29.97
2.00 9.54 25.82
3.00 3.35 13.50
4.00 13.42 21.30
5.00 34.04 35.68
